33D32945 STP File, STP Format Version 1.0

SECTION Comment 
Name "hc7u" 
Creator "Indaco Biazzo"  
Remark "prize version of Rosseti et al. hypercube graphs"  
END 

SECTION Graph
Nodes 128
Edges 448
E 1 65 1.000000
E 1 33 1.000000
E 1 17 1.000000
E 1 9 1.000000
E 1 5 1.000000
E 1 3 1.000000
E 1 2 1.000000
E 2 66 1.000000
E 2 34 1.000000
E 2 18 1.000000
E 2 10 1.000000
E 2 6 1.000000
E 2 4 1.000000
E 3 67 1.000000
E 3 35 1.000000
E 3 19 1.000000
E 3 11 1.000000
E 3 7 1.000000
E 3 4 1.000000
E 4 68 1.000000
E 4 36 1.000000
E 4 20 1.000000
E 4 12 1.000000
E 4 8 1.000000
E 5 69 1.000000
E 5 37 1.000000
E 5 21 1.000000
E 5 13 1.000000
E 5 7 1.000000
E 5 6 1.000000
E 6 70 1.000000
E 6 38 1.000000
E 6 22 1.000000
E 6 14 1.000000
E 6 8 1.000000
E 7 71 1.000000
E 7 39 1.000000
E 7 23 1.000000
E 7 15 1.000000
E 7 8 1.000000
E 8 72 1.000000
E 8 40 1.000000
E 8 24 1.000000
E 8 16 1.000000
E 9 73 1.000000
E 9 41 1.000000
E 9 25 1.000000
E 9 13 1.000000
E 9 11 1.000000
E 9 10 1.000000
E 10 74 1.000000
E 10 42 1.000000
E 10 26 1.000000
E 10 14 1.000000
E 10 12 1.000000
E 11 75 1.000000
E 11 43 1.000000
E 11 27 1.000000
E 11 15 1.000000
E 11 12 1.000000
E 12 76 1.000000
E 12 44 1.000000
E 12 28 1.000000
E 12 16 1.000000
E 13 77 1.000000
E 13 45 1.000000
E 13 29 1.000000
E 13 15 1.000000
E 13 14 1.000000
E 14 78 1.000000
E 14 46 1.000000
E 14 30 1.000000
E 14 16 1.000000
E 15 79 1.000000
E 15 47 1.000000
E 15 31 1.000000
E 15 16 1.000000
E 16 80 1.000000
E 16 48 1.000000
E 16 32 1.000000
E 17 81 1.000000
E 17 49 1.000000
E 17 25 1.000000
E 17 21 1.000000
E 17 19 1.000000
E 17 18 1.000000
E 18 82 1.000000
E 18 50 1.000000
E 18 26 1.000000
E 18 22 1.000000
E 18 20 1.000000
E 19 83 1.000000
E 19 51 1.000000
E 19 27 1.000000
E 19 23 1.000000
E 19 20 1.000000
E 20 84 1.000000
E 20 52 1.000000
E 20 28 1.000000
E 20 24 1.000000
E 21 85 1.000000
E 21 53 1.000000
E 21 29 1.000000
E 21 23 1.000000
E 21 22 1.000000
E 22 86 1.000000
E 22 54 1.000000
E 22 30 1.000000
E 22 24 1.000000
E 23 87 1.000000
E 23 55 1.000000
E 23 31 1.000000
E 23 24 1.000000
E 24 88 1.000000
E 24 56 1.000000
E 24 32 1.000000
E 25 89 1.000000
E 25 57 1.000000
E 25 29 1.000000
E 25 27 1.000000
E 25 26 1.000000
E 26 90 1.000000
E 26 58 1.000000
E 26 30 1.000000
E 26 28 1.000000
E 27 91 1.000000
E 27 59 1.000000
E 27 31 1.000000
E 27 28 1.000000
E 28 92 1.000000
E 28 60 1.000000
E 28 32 1.000000
E 29 93 1.000000
E 29 61 1.000000
E 29 31 1.000000
E 29 30 1.000000
E 30 94 1.000000
E 30 62 1.000000
E 30 32 1.000000
E 31 95 1.000000
E 31 63 1.000000
E 31 32 1.000000
E 32 96 1.000000
E 32 64 1.000000
E 33 97 1.000000
E 33 49 1.000000
E 33 41 1.000000
E 33 37 1.000000
E 33 35 1.000000
E 33 34 1.000000
E 34 98 1.000000
E 34 50 1.000000
E 34 42 1.000000
E 34 38 1.000000
E 34 36 1.000000
E 35 99 1.000000
E 35 51 1.000000
E 35 43 1.000000
E 35 39 1.000000
E 35 36 1.000000
E 36 100 1.000000
E 36 52 1.000000
E 36 44 1.000000
E 36 40 1.000000
E 37 101 1.000000
E 37 53 1.000000
E 37 45 1.000000
E 37 39 1.000000
E 37 38 1.000000
E 38 102 1.000000
E 38 54 1.000000
E 38 46 1.000000
E 38 40 1.000000
E 39 103 1.000000
E 39 55 1.000000
E 39 47 1.000000
E 39 40 1.000000
E 40 104 1.000000
E 40 56 1.000000
E 40 48 1.000000
E 41 105 1.000000
E 41 57 1.000000
E 41 45 1.000000
E 41 43 1.000000
E 41 42 1.000000
E 42 106 1.000000
E 42 58 1.000000
E 42 46 1.000000
E 42 44 1.000000
E 43 107 1.000000
E 43 59 1.000000
E 43 47 1.000000
E 43 44 1.000000
E 44 108 1.000000
E 44 60 1.000000
E 44 48 1.000000
E 45 109 1.000000
E 45 61 1.000000
E 45 47 1.000000
E 45 46 1.000000
E 46 110 1.000000
E 46 62 1.000000
E 46 48 1.000000
E 47 111 1.000000
E 47 63 1.000000
E 47 48 1.000000
E 48 112 1.000000
E 48 64 1.000000
E 49 113 1.000000
E 49 57 1.000000
E 49 53 1.000000
E 49 51 1.000000
E 49 50 1.000000
E 50 114 1.000000
E 50 58 1.000000
E 50 54 1.000000
E 50 52 1.000000
E 51 115 1.000000
E 51 59 1.000000
E 51 55 1.000000
E 51 52 1.000000
E 52 116 1.000000
E 52 60 1.000000
E 52 56 1.000000
E 53 117 1.000000
E 53 61 1.000000
E 53 55 1.000000
E 53 54 1.000000
E 54 118 1.000000
E 54 62 1.000000
E 54 56 1.000000
E 55 119 1.000000
E 55 63 1.000000
E 55 56 1.000000
E 56 120 1.000000
E 56 64 1.000000
E 57 121 1.000000
E 57 61 1.000000
E 57 59 1.000000
E 57 58 1.000000
E 58 122 1.000000
E 58 62 1.000000
E 58 60 1.000000
E 59 123 1.000000
E 59 63 1.000000
E 59 60 1.000000
E 60 124 1.000000
E 60 64 1.000000
E 61 125 1.000000
E 61 63 1.000000
E 61 62 1.000000
E 62 126 1.000000
E 62 64 1.000000
E 63 127 1.000000
E 63 64 1.000000
E 64 128 1.000000
E 65 97 1.000000
E 65 81 1.000000
E 65 73 1.000000
E 65 69 1.000000
E 65 67 1.000000
E 65 66 1.000000
E 66 98 1.000000
E 66 82 1.000000
E 66 74 1.000000
E 66 70 1.000000
E 66 68 1.000000
E 67 99 1.000000
E 67 83 1.000000
E 67 75 1.000000
E 67 71 1.000000
E 67 68 1.000000
E 68 100 1.000000
E 68 84 1.000000
E 68 76 1.000000
E 68 72 1.000000
E 69 101 1.000000
E 69 85 1.000000
E 69 77 1.000000
E 69 71 1.000000
E 69 70 1.000000
E 70 102 1.000000
E 70 86 1.000000
E 70 78 1.000000
E 70 72 1.000000
E 71 103 1.000000
E 71 87 1.000000
E 71 79 1.000000
E 71 72 1.000000
E 72 104 1.000000
E 72 88 1.000000
E 72 80 1.000000
E 73 105 1.000000
E 73 89 1.000000
E 73 77 1.000000
E 73 75 1.000000
E 73 74 1.000000
E 74 106 1.000000
E 74 90 1.000000
E 74 78 1.000000
E 74 76 1.000000
E 75 107 1.000000
E 75 91 1.000000
E 75 79 1.000000
E 75 76 1.000000
E 76 108 1.000000
E 76 92 1.000000
E 76 80 1.000000
E 77 109 1.000000
E 77 93 1.000000
E 77 79 1.000000
E 77 78 1.000000
E 78 110 1.000000
E 78 94 1.000000
E 78 80 1.000000
E 79 111 1.000000
E 79 95 1.000000
E 79 80 1.000000
E 80 112 1.000000
E 80 96 1.000000
E 81 113 1.000000
E 81 89 1.000000
E 81 85 1.000000
E 81 83 1.000000
E 81 82 1.000000
E 82 114 1.000000
E 82 90 1.000000
E 82 86 1.000000
E 82 84 1.000000
E 83 115 1.000000
E 83 91 1.000000
E 83 87 1.000000
E 83 84 1.000000
E 84 116 1.000000
E 84 92 1.000000
E 84 88 1.000000
E 85 117 1.000000
E 85 93 1.000000
E 85 87 1.000000
E 85 86 1.000000
E 86 118 1.000000
E 86 94 1.000000
E 86 88 1.000000
E 87 119 1.000000
E 87 95 1.000000
E 87 88 1.000000
E 88 120 1.000000
E 88 96 1.000000
E 89 121 1.000000
E 89 93 1.000000
E 89 91 1.000000
E 89 90 1.000000
E 90 122 1.000000
E 90 94 1.000000
E 90 92 1.000000
E 91 123 1.000000
E 91 95 1.000000
E 91 92 1.000000
E 92 124 1.000000
E 92 96 1.000000
E 93 125 1.000000
E 93 95 1.000000
E 93 94 1.000000
E 94 126 1.000000
E 94 96 1.000000
E 95 127 1.000000
E 95 96 1.000000
E 96 128 1.000000
E 97 113 1.000000
E 97 105 1.000000
E 97 101 1.000000
E 97 99 1.000000
E 97 98 1.000000
E 98 114 1.000000
E 98 106 1.000000
E 98 102 1.000000
E 98 100 1.000000
E 99 115 1.000000
E 99 107 1.000000
E 99 103 1.000000
E 99 100 1.000000
E 100 116 1.000000
E 100 108 1.000000
E 100 104 1.000000
E 101 117 1.000000
E 101 109 1.000000
E 101 103 1.000000
E 101 102 1.000000
E 102 118 1.000000
E 102 110 1.000000
E 102 104 1.000000
E 103 119 1.000000
E 103 111 1.000000
E 103 104 1.000000
E 104 120 1.000000
E 104 112 1.000000
E 105 121 1.000000
E 105 109 1.000000
E 105 107 1.000000
E 105 106 1.000000
E 106 122 1.000000
E 106 110 1.000000
E 106 108 1.000000
E 107 123 1.000000
E 107 111 1.000000
E 107 108 1.000000
E 108 124 1.000000
E 108 112 1.000000
E 109 125 1.000000
E 109 111 1.000000
E 109 110 1.000000
E 110 126 1.000000
E 110 112 1.000000
E 111 127 1.000000
E 111 112 1.000000
E 112 128 1.000000
E 113 121 1.000000
E 113 117 1.000000
E 113 115 1.000000
E 113 114 1.000000
E 114 122 1.000000
E 114 118 1.000000
E 114 116 1.000000
E 115 123 1.000000
E 115 119 1.000000
E 115 116 1.000000
E 116 124 1.000000
E 116 120 1.000000
E 117 125 1.000000
E 117 119 1.000000
E 117 118 1.000000
E 118 126 1.000000
E 118 120 1.000000
E 119 127 1.000000
E 119 120 1.000000
E 120 128 1.000000
E 121 125 1.000000
E 121 123 1.000000
E 121 122 1.000000
E 122 126 1.000000
E 122 124 1.000000
E 123 127 1.000000
E 123 124 1.000000
E 124 128 1.000000
E 125 127 1.000000
E 125 126 1.000000
E 126 128 1.000000
E 127 128 1.000000
END

SECTION Terminals
Terminals 128
TP 1 0.000000
TP 2 0.000000
TP 3 0.000000
TP 4 0.000000
TP 5 0.000000
TP 6 0.000000
TP 7 2.000000
TP 8 0.000000
TP 9 0.000000
TP 10 0.000000
TP 11 1.000000
TP 12 0.000000
TP 13 2.000000
TP 14 0.000000
TP 15 0.000000
TP 16 0.000000
TP 17 0.000000
TP 18 1.000000
TP 19 0.000000
TP 20 0.000000
TP 21 1.000000
TP 22 0.000000
TP 23 0.000000
TP 24 0.000000
TP 25 0.000000
TP 26 0.000000
TP 27 0.000000
TP 28 2.000000
TP 29 0.000000
TP 30 1.000000
TP 31 0.000000
TP 32 0.000000
TP 33 0.000000
TP 34 2.000000
TP 35 2.000000
TP 36 0.000000
TP 37 2.000000
TP 38 0.000000
TP 39 0.000000
TP 40 2.000000
TP 41 0.000000
TP 42 0.000000
TP 43 0.000000
TP 44 0.000000
TP 45 0.000000
TP 46 1.000000
TP 47 2.000000
TP 48 0.000000
TP 49 0.000000
TP 50 0.000000
TP 51 0.000000
TP 52 2.000000
TP 53 0.000000
TP 54 1.000000
TP 55 0.000000
TP 56 0.000000
TP 57 0.000000
TP 58 1.000000
TP 59 0.000000
TP 60 0.000000
TP 61 0.000000
TP 62 0.000000
TP 63 0.000000
TP 64 1.000000
TP 65 0.000000
TP 66 1.000000
TP 67 2.000000
TP 68 0.000000
TP 69 1.000000
TP 70 0.000000
TP 71 0.000000
TP 72 2.000000
TP 73 0.000000
TP 74 0.000000
TP 75 0.000000
TP 76 2.000000
TP 77 0.000000
TP 78 0.000000
TP 79 0.000000
TP 80 0.000000
TP 81 1.000000
TP 82 0.000000
TP 83 0.000000
TP 84 1.000000
TP 85 0.000000
TP 86 2.000000
TP 87 2.000000
TP 88 0.000000
TP 89 0.000000
TP 90 1.000000
TP 91 0.000000
TP 92 0.000000
TP 93 2.000000
TP 94 0.000000
TP 95 0.000000
TP 96 2.000000
TP 97 1.000000
TP 98 0.000000
TP 99 0.000000
TP 100 0.000000
TP 101 0.000000
TP 102 0.000000
TP 103 0.000000
TP 104 0.000000
TP 105 0.000000
TP 106 1.000000
TP 107 2.000000
TP 108 0.000000
TP 109 2.000000
TP 110 0.000000
TP 111 0.000000
TP 112 2.000000
TP 113 0.000000
TP 114 1.000000
TP 115 0.000000
TP 116 0.000000
TP 117 2.000000
TP 118 0.000000
TP 119 0.000000
TP 120 2.000000
TP 121 1.000000
TP 122 0.000000
TP 123 0.000000
TP 124 2.000000
TP 125 0.000000
TP 126 0.000000
TP 127 1.000000
TP 128 0.000000
END

EOF
